W=6;
H=7;

MAX_TIME=W*H;
MAX_TRACKS=18;

TARGET=(4,6);

TRAINS=[(1,6,LEFT),(7,1,TOP),(1,1,DOWN),(7,6,LEFT)];
DECOYS=[];

INIT_POS=[
(1,1,STRAIGHT_TD),
(1,6,STRAIGHT_RL),
(4,1,STRAIGHT_TD),
(4,4,ESWITCH_D_T_R),
(4,5,STRAIGHT_RL),
(4,6,STRAIGHT_RL),
(7,1,STRAIGHT_TD),
(7,6,STRAIGHT_RL),
];
TUNNEL_PAIRS=[];

GATES=[
(4,5,1,false),
];
ACTIVATIONS=[
(4,1,1),
];

DSWITCHES=[];
STATIONS=[];
